/*********************************************
 * OPL 12.6.0.0 Data
 * Author: Adrian Rodriguez Bazaga, Pau Rodriguez Esmerats
 * Creation Date: 06/12/2017 at 23:03:00
 *********************************************/

nNurses=172;
maxConsec=2;
maxPresence=7;
maxHours=5;
minHours=1;
hours=24;
demand= [29 30 45 47 30 45 47 31 34 21 4 4 5 4 6 3 4 1 2 0 29 51 23 41  ];
